p edge 69 684
e 1 2
e 1 5
e 1 14
e 1 18
e 1 20
e 1 27
e 1 28
e 1 36
e 1 41
e 1 44
e 1 48
e 1 49
e 1 50
e 1 51
e 1 52
e 1 53
e 1 54
e 1 55
e 1 57
e 1 58
e 2 4
e 2 8
e 2 17
e 2 21
e 2 23
e 2 24
e 2 25
e 2 26
e 2 36
e 2 37
e 2 38
e 2 40
e 2 41
e 2 44
e 2 45
e 2 49
e 2 50
e 2 51
e 2 62
e 3 4
e 3 5
e 3 14
e 3 22
e 3 25
e 3 26
e 3 35
e 3 36
e 3 42
e 3 45
e 3 54
e 3 58
e 3 61
e 3 62
e 3 63
e 3 65
e 3 69
e 4 5
e 4 11
e 4 17
e 4 25
e 4 26
e 4 29
e 4 35
e 4 37
e 4 44
e 4 45
e 4 51
e 4 55
e 4 58
e 4 59
e 4 62
e 4 63
e 4 65
e 5 9
e 5 11
e 5 12
e 5 22
e 5 25
e 5 31
e 5 32
e 5 33
e 5 36
e 5 40
e 5 45
e 5 49
e 5 55
e 5 58
e 5 60
e 5 65
e 5 68
e 6 13
e 6 15
e 6 19
e 6 20
e 6 21
e 6 23
e 6 25
e 6 30
e 6 40
e 6 42
e 6 43
e 6 45
e 6 47
e 6 51
e 6 57
e 6 58
e 6 64
e 6 65
e 6 66
e 6 67
e 7 8
e 7 14
e 7 16
e 7 17
e 7 21
e 7 22
e 7 23
e 7 24
e 7 27
e 7 33
e 7 36
e 7 38
e 7 39
e 7 42
e 7 47
e 7 48
e 7 50
e 7 51
e 7 52
e 7 57
e 7 58
e 7 60
e 7 61
e 7 62
e 7 64
e 7 66
e 7 67
e 8 13
e 8 14
e 8 24
e 8 28
e 8 38
e 8 39
e 8 41
e 8 47
e 8 48
e 8 50
e 8 54
e 8 56
e 8 58
e 8 62
e 8 66
e 8 68
e 9 10
e 9 11
e 9 17
e 9 18
e 9 21
e 9 28
e 9 36
e 9 38
e 9 46
e 9 48
e 9 54
e 9 63
e 10 26
e 10 29
e 10 34
e 10 41
e 10 46
e 10 59
e 10 62
e 10 65
e 10 66
e 10 69
e 11 14
e 11 17
e 11 18
e 11 19
e 11 22
e 11 27
e 11 31
e 11 34
e 11 41
e 11 44
e 11 45
e 11 47
e 11 54
e 11 55
e 11 56
e 11 58
e 11 60
e 11 61
e 11 64
e 11 65
e 12 13
e 12 20
e 12 22
e 12 24
e 12 26
e 12 30
e 12 31
e 12 35
e 12 37
e 12 38
e 12 40
e 12 41
e 12 42
e 12 45
e 12 47
e 12 50
e 12 52
e 12 53
e 12 56
e 12 63
e 12 64
e 12 69
e 13 14
e 13 15
e 13 20
e 13 21
e 13 23
e 13 25
e 13 30
e 13 31
e 13 33
e 13 53
e 13 54
e 13 59
e 13 67
e 13 68
e 14 18
e 14 19
e 14 21
e 14 28
e 14 31
e 14 46
e 14 54
e 14 55
e 14 57
e 14 58
e 14 61
e 15 19
e 15 23
e 15 27
e 15 28
e 15 30
e 15 32
e 15 41
e 15 42
e 15 44
e 15 48
e 15 50
e 15 52
e 15 56
e 15 57
e 15 65
e 16 18
e 16 22
e 16 24
e 16 27
e 16 28
e 16 31
e 16 33
e 16 40
e 16 47
e 16 48
e 16 50
e 16 63
e 16 65
e 16 66
e 16 67
e 17 21
e 17 22
e 17 23
e 17 32
e 17 33
e 17 36
e 17 40
e 17 46
e 17 53
e 17 56
e 17 57
e 17 60
e 17 61
e 17 66
e 18 19
e 18 27
e 18 31
e 18 40
e 18 41
e 18 45
e 18 53
e 18 58
e 18 61
e 18 66
e 19 20
e 19 22
e 19 23
e 19 26
e 19 36
e 19 43
e 19 48
e 19 51
e 19 54
e 19 55
e 19 56
e 19 58
e 19 61
e 19 62
e 19 64
e 20 23
e 20 25
e 20 26
e 20 29
e 20 31
e 20 32
e 20 36
e 20 37
e 20 38
e 20 42
e 20 46
e 20 52
e 20 54
e 20 55
e 20 58
e 20 61
e 20 63
e 20 64
e 20 68
e 20 69
e 21 22
e 21 23
e 21 25
e 21 29
e 21 34
e 21 36
e 21 50
e 21 51
e 21 52
e 21 53
e 21 57
e 21 58
e 21 59
e 21 60
e 21 61
e 21 62
e 21 63
e 21 65
e 21 66
e 21 68
e 22 23
e 22 26
e 22 33
e 22 34
e 22 39
e 22 46
e 22 49
e 22 56
e 22 57
e 22 59
e 22 61
e 22 67
e 22 68
e 23 27
e 23 30
e 23 35
e 23 37
e 23 42
e 23 45
e 23 47
e 23 50
e 23 51
e 23 52
e 23 54
e 23 55
e 23 57
e 23 58
e 23 60
e 23 62
e 23 63
e 23 66
e 23 67
e 24 26
e 24 31
e 24 35
e 24 45
e 24 46
e 24 49
e 24 53
e 24 55
e 24 58
e 24 61
e 24 63
e 24 65
e 24 68
e 25 31
e 25 32
e 25 36
e 25 37
e 25 38
e 25 40
e 25 42
e 25 43
e 25 44
e 25 47
e 25 48
e 25 51
e 25 53
e 25 55
e 25 56
e 25 58
e 25 60
e 25 63
e 25 64
e 25 66
e 25 67
e 26 28
e 26 31
e 26 32
e 26 33
e 26 34
e 26 35
e 26 41
e 26 43
e 26 46
e 26 52
e 26 63
e 26 66
e 26 67
e 27 30
e 27 33
e 27 39
e 27 47
e 27 49
e 27 50
e 27 66
e 27 67
e 27 69
e 28 29
e 28 30
e 28 33
e 28 34
e 28 42
e 28 43
e 28 45
e 28 52
e 28 53
e 28 57
e 28 58
e 28 59
e 28 60
e 28 61
e 28 62
e 28 63
e 28 68
e 29 33
e 29 35
e 29 36
e 29 38
e 29 39
e 29 41
e 29 42
e 29 46
e 29 56
e 29 62
e 29 63
e 29 65
e 29 67
e 29 69
e 30 31
e 30 32
e 30 37
e 30 51
e 30 54
e 30 56
e 30 59
e 30 63
e 30 64
e 31 35
e 31 36
e 31 39
e 31 40
e 31 42
e 31 46
e 31 47
e 31 48
e 31 58
e 31 59
e 31 63
e 31 66
e 31 67
e 32 36
e 32 42
e 32 45
e 32 50
e 32 51
e 32 59
e 32 63
e 32 65
e 32 67
e 33 35
e 33 36
e 33 40
e 33 41
e 33 45
e 33 50
e 33 57
e 33 60
e 33 61
e 33 64
e 33 68
e 34 35
e 34 37
e 34 38
e 34 40
e 34 41
e 34 48
e 34 55
e 34 56
e 34 58
e 34 64
e 34 65
e 34 67
e 34 69
e 35 38
e 35 40
e 35 43
e 35 44
e 35 45
e 35 46
e 35 56
e 35 61
e 35 65
e 35 66
e 36 38
e 36 41
e 36 43
e 36 51
e 36 52
e 36 56
e 36 58
e 36 68
e 37 38
e 37 42
e 37 53
e 37 63
e 37 64
e 37 66
e 37 67
e 37 68
e 38 45
e 38 46
e 38 54
e 38 55
e 38 60
e 39 43
e 39 46
e 39 51
e 39 52
e 39 53
e 39 54
e 39 55
e 39 66
e 39 68
e 39 69
e 40 41
e 40 48
e 40 56
e 40 59
e 40 65
e 40 66
e 41 42
e 41 43
e 41 44
e 41 47
e 41 49
e 41 52
e 41 55
e 41 56
e 41 63
e 41 68
e 41 69
e 42 46
e 42 61
e 42 62
e 42 69
e 43 45
e 43 46
e 43 47
e 43 55
e 43 56
e 43 58
e 43 62
e 44 48
e 44 49
e 44 50
e 44 53
e 44 56
e 44 66
e 44 67
e 44 68
e 45 46
e 45 47
e 45 48
e 45 50
e 45 60
e 45 61
e 46 47
e 46 52
e 46 53
e 46 57
e 46 58
e 46 68
e 47 49
e 47 55
e 47 58
e 47 59
e 47 67
e 47 68
e 47 69
e 48 53
e 48 57
e 48 59
e 48 61
e 48 62
e 48 69
e 49 50
e 49 51
e 49 53
e 49 59
e 49 62
e 49 63
e 49 68
e 50 58
e 50 60
e 50 68
e 50 69
e 51 53
e 51 56
e 51 58
e 51 62
e 51 66
e 51 67
e 52 56
e 52 62
e 53 54
e 53 55
e 53 60
e 54 55
e 54 62
e 54 65
e 54 67
e 54 68
e 55 61
e 55 69
e 56 64
e 56 68
e 57 61
e 57 62
e 57 66
e 57 69
e 58 59
e 58 62
e 58 69
e 59 60
e 59 61
e 59 67
e 60 61
e 60 62
e 60 68
e 61 64
e 61 67
e 61 68
e 61 69
e 62 64
e 62 65
e 62 67
e 64 67
e 64 69
e 65 67
e 65 69
e 67 68
e 68 69
